succeed=True
[CUDA] cuda: usage: 5.54 GB
0 :  {link #0 : 1}, {link #1 : 2}, {link #2 : 3},
1 :  {link #0 : 2}, {link #1 : 3}, {link #2 : 0},
2 :  {link #0 : 3}, {link #1 : 0}, {link #2 : 1},
3 :  {link #0 : 0}, {link #1 : 1}, {link #2 : 2},
0 :  {link #0 : 1}, {link #1 : 2}, {link #2 : 3},
1 :  {link #0 : 2}, {link #1 : 3}, {link #2 : 0},
2 :  {link #0 : 3}, {link #1 : 0}, {link #2 : 1},
3 :  {link #0 : 0}, {link #1 : 1}, {link #2 : 2},
0 :  {link #0 : 1}, {link #1 : 2}, {link #2 : 3},
1 :  {link #0 : 2}, {link #1 : 3}, {link #2 : 0},
2 :  {link #0 : 3}, {link #1 : 0}, {link #2 : 1},
3 :  {link #0 : 0}, {link #1 : 1}, {link #2 : 2},
0 : local 72, cpu 8 {link #0 : g1 24}, {link #1 : g2 24}, {link #2 : g3 24},
1 : local 72, cpu 8 {link #0 : g2 24}, {link #1 : g3 24}, {link #2 : g0 24},
2 : local 72, cpu 8 {link #0 : g3 24}, {link #1 : g0 24}, {link #2 : g1 24},
3 : local 72, cpu 8 {link #0 : g0 24}, {link #1 : g1 24}, {link #2 : g2 24},
0 : local 72, cpu 8 {link #0 : g1 24}, {link #1 : g2 24}, {link #2 : g3 24},
1 : local 72, cpu 8 {link #0 : g2 24}, {link #1 : g3 24}, {link #2 : g0 24},
2 : local 72, cpu 8 {link #0 : g3 24}, {link #1 : g0 24}, {link #2 : g1 24},
3 : local 72, cpu 8 {link #0 : g0 24}, {link #1 : g1 24}, {link #2 : g2 24},
0 : local 72, cpu 8 {link #0 : g1 24}, {link #1 : g2 24}, {link #2 : g3 24},
1 : local 72, cpu 8 {link #0 : g2 24}, {link #1 : g3 24}, {link #2 : g0 24},
2 : local 72, cpu 8 {link #0 : g3 24}, {link #1 : g0 24}, {link #2 : g1 24},
3 : local 72, cpu 8 {link #0 : g0 24}, {link #1 : g1 24}, {link #2 : g2 24},
0 :  {link #0 : 1}, {link #1 : 2}, {link #2 : 3},
1 :  {link #0 : 2}, {link #1 : 3}, {link #2 : 0},
2 :  {link #0 : 3}, {link #1 : 0}, {link #2 : 1},
3 :  {link #0 : 0}, {link #1 : 1}, {link #2 : 2},
0 : local 72, cpu 8 {link #0 : g1 24}, {link #1 : g2 24}, {link #2 : g3 24},
1 : local 72, cpu 8 {link #0 : g2 24}, {link #1 : g3 24}, {link #2 : g0 24},
2 : local 72, cpu 8 {link #0 : g3 24}, {link #1 : g0 24}, {link #2 : g1 24},
3 : local 72, cpu 8 {link #0 : g0 24}, {link #1 : g1 24}, {link #2 : g2 24},
Set parameter WLSAccessID
Set parameter WLSSecret
Set parameter LicenseID
Set parameter TimeLimit to value 200
Set parameter MIPGap to value 0.05
Set parameter LogFile to value "cppsolver.log"
Set parameter Threads to value 40
Academic license - for non-commercial use only - registered to xiaoniu.sxn@sjtu.edu.cn
Gurobi Optimizer version 9.5.1 build v9.5.1rc2 (linux64)
Thread count: 40 physical cores, 80 logical processors, using up to 40 threads
Academic license - for non-commercial use only - registered to xiaoniu.sxn@sjtu.edu.cn
Optimize a model with 22596 rows, 7383 columns and 69464 nonzeros
Model fingerprint: 0x5ad97418
Variable types: 5 continuous, 7378 integer (7378 binary)
Coefficient statistics:
  Matrix range     [5e-09, 2e+04]
  Objective range  [1e+00, 1e+00]
  Bounds range     [1e+00, 1e+00]
  RHS range        [1e+00, 1e+04]
Warning: Model contains large matrix coefficient range
         Consider reformulating model or setting NumericFocus parameter
         to avoid numerical issues.
Found heuristic solution: objective 47977.206811
Presolve removed 15646 rows and 20 columns
Presolve time: 0.09s
Presolved: 6950 rows, 7363 columns, 33396 nonzeros
Variable types: 1 continuous, 7362 integer (7361 binary)

Root relaxation: objective 1.233900e+04, 7270 iterations, 0.08 seconds (0.06 work units)

    Nodes    |    Current Node    |     Objective Bounds      |     Work
 Expl Unexpl |  Obj  Depth IntInf | Incumbent    BestBd   Gap | It/Node Time

     0     0 12339.0021    0   25 47977.2068 12339.0021  74.3%     -    0s
H    0     0                    12694.836465 12339.0021  2.80%     -    0s

Explored 1 nodes (9978 simplex iterations) in 0.28 seconds (0.22 work units)
Thread count was 40 (of 80 available processors)

Solution count 2: 12694.8 47977.2 

Optimal solution found (tolerance 5.00e-02)
Best objective 1.269483646505e+04, best bound 1.233900212565e+04, gap 2.8030%
coll_cache:optimal_local_rate=0.214077,0.209319,0.177588,0.227725,
coll_cache:optimal_remote_rate=0.613941,0.6187,0.650431,0.600293,
coll_cache:optimal_cpu_rate=0.171982,0.171982,0.171982,0.171982,
z=12694.8
test_result:init:feat_nbytes=56862697472
test_result:init:cache_nbytes=4605878272
test_result:init:feat_nbytes=56862697472
test_result:init:cache_nbytes=4605878272
test_result:init:feat_nbytes=56862697472
test_result:init:cache_nbytes=4605878272
test_result:init:feat_nbytes=56862697472
test_result:init:cache_nbytes=4605878272
    [Step(average) Profiler Level 1 E3 S999]
        L1  sample           0.003920 | send           0.000000
        L1  recv             0.000000 | copy           0.009981 | convert time 0.000000 | train  0.007571
        L1  feature nbytes  563.53 MB | label nbytes 0.00 Bytes
        L1  id nbytes      0.00 Bytes | graph nbytes 0.00 Bytes
        L1  miss nbytes     102.04 MB | remote nbytes  346.77 MB
        L1  num nodes               0 | num samples           0
        L1  seq duration     0.000000 | refresh duration   0.000000
    [Step(average) Profiler Level 2 E3 S999]
        L2  shuffle     0.000000 | core sample  0.000000 | id remap        0.000000
        L2  graph copy  0.000000 | id copy      0.000000 | cache feat copy 0.009981
        L2  last layer sample time 0.000000 | size 0.000000
    [Step(average) Profiler Level 3 E3 S999]
        L3  khop sample coo  0.000000 | khop sort coo      0.000000 | khop count edge     0.000000 | khop compact edge 0.000000
        L3  walk sample coo  0.000000 | walk topk total    0.000000 | walk topk step1     0.000000 | walk topk step2   0.000000
        L3  walk topk step3  0.000000 | walk topk step4    0.000000 | walk topk step5     0.000000
        L3  walk topk step6  0.000000 | walk topk step7    0.000000
        L3  remap unique     0.000000 | remap populate     0.000000 | remap mapnode       0.000000 | remap mapedge     0.000000
        L3  cache get_index  0.000872 | cache copy_index   0.000000 | cache extract_miss  0.000000
        L3  cache copy_miss  0.000000 | cache combine_miss 0.009065 | cache combine cache 0.000321 | cache combine remote 0.003049
        L3  label extract  0.000000
    [Profiler Level Percentiles E3 S999]
        p50.00_tail_logl2featcopy=0.009959
        p90.00_tail_logl2featcopy=0.010533
        p95.00_tail_logl2featcopy=0.010582
        p99.00_tail_logl2featcopy=0.010669
        p99.90_tail_logl2featcopy=0.012733
[CUDA] cuda: usage: 14.61 GB
Rank=1, Graph loaded.
!!!!dist_homo_graph enumerate latency per epoch: 0.012975, per step: 0.000052
presamping
presamping takes 19.134852647781372
Rank=3, Graph loaded.
!!!!dist_homo_graph enumerate latency per epoch: 0.010205, per step: 0.000041
presamping
presamping takes 16.644346952438354
Rank=2, Graph loaded.
!!!!dist_homo_graph enumerate latency per epoch: 0.010200, per step: 0.000041
presamping
presamping takes 19.960968017578125
config:eval_tsp="2023-04-14 17:48:57"
config:num_worker=4
config:num_intra_size=4
config:root_dir=/nvme/songxiaoniu/graph-learning/wholegraph
config:graph_name=ogbn-papers100M
config:epochs=4
config:batchsize=2000
config:skip_epoch=2
config:local_step=250
config:presc_epoch=2
config:neighbors=10,25
config:hiddensize=256
config:num_layer=2
config:model=sage
config:framework=dgl
config:dataloaderworkers=0
config:dropout=0.5
config:lr=0.003
config:use_nccl=False
config:use_amp=True
config:use_collcache=True
config:cache_percentage=0.08
config:cache_policy=coll_cache_asymm_link
config:omp_thread_num=40
config:unsupervised=True
config:classnum=172
config:global_barrier=<multiprocessing.synchronize.Barrier object at 0x7f2ec2b8d460>
config:worker_id=0
creating_intra_node_communicator root=0, local_size=4, world_size=4
Rank=0, Graph loaded.
!!!!dist_homo_graph enumerate latency per epoch: 0.009368, per step: 0.000037
epoch=4 total_steps=1000
presamping
presamping takes 12.722231388092041
start training...
[Epoch 0], time=6.656710386276245, loss=0.6931472420692444
[Epoch 1], time=5.412869691848755, loss=0.6931472420692444
[Epoch 2], time=5.392315864562988, loss=0.6931472420692444
[Epoch 3], time=5.343315601348877, loss=0.6931472420692444
|===========================================================================|
|                  PyTorch CUDA memory summary, device ID 0                 |
|---------------------------------------------------------------------------|
|            CUDA OOMs: 0            |        cudaMalloc retries: 0         |
|===========================================================================|
|        Metric         | Cur Usage  | Peak Usage | Tot Alloc  | Tot Freed  |
|---------------------------------------------------------------------------|
| Allocated memory      |   76554 KB |  427477 KB |    1276 GB |    1276 GB |
|       from large pool |   69518 KB |  421017 KB |    1260 GB |    1260 GB |
|       from small pool |    7036 KB |    8944 KB |      16 GB |      16 GB |
|---------------------------------------------------------------------------|
| Active memory         |   76554 KB |  427477 KB |    1276 GB |    1276 GB |
|       from large pool |   69518 KB |  421017 KB |    1260 GB |    1260 GB |
|       from small pool |    7036 KB |    8944 KB |      16 GB |      16 GB |
|---------------------------------------------------------------------------|
| GPU reserved memory   |    1282 MB |    1282 MB |    1282 MB |       0 B  |
|       from large pool |    1270 MB |    1270 MB |    1270 MB |       0 B  |
|       from small pool |      12 MB |      12 MB |      12 MB |       0 B  |
|---------------------------------------------------------------------------|
| Non-releasable memory |   52469 KB |  633028 KB |    1700 GB |    1700 GB |
|       from large pool |   49266 KB |  629461 KB |    1684 GB |    1684 GB |
|       from small pool |    3203 KB |    6397 KB |      16 GB |      16 GB |
|---------------------------------------------------------------------------|
| Allocations           |      58    |      74    |  204810    |  204752    |
|       from large pool |      11    |      21    |   62520    |   62509    |
|       from small pool |      47    |      58    |  142290    |  142243    |
|---------------------------------------------------------------------------|
| Active allocs         |      58    |      74    |  204810    |  204752    |
|       from large pool |      11    |      21    |   62520    |   62509    |
|       from small pool |      47    |      58    |  142290    |  142243    |
|---------------------------------------------------------------------------|
| GPU reserved segments |      18    |      18    |      18    |       0    |
|       from large pool |      12    |      12    |      12    |       0    |
|       from small pool |       6    |       6    |       6    |       0    |
|---------------------------------------------------------------------------|
| Non-releasable allocs |      24    |      36    |   69125    |   69101    |
|       from large pool |       9    |      14    |   34839    |   34830    |
|       from small pool |      15    |      26    |   34286    |   34271    |
|---------------------------------------------------------------------------|
| Oversize allocations  |       0    |       0    |       0    |       0    |
|---------------------------------------------------------------------------|
| Oversize GPU segments |       0    |       0    |       0    |       0    |
|===========================================================================|

[TRAIN_TIME] train time is 22.807337 seconds
[EPOCH_TIME] 5.701834 seconds, maybe large due to not enough epoch skipped.
[EPOCH_TIME] 5.367965 seconds

